NAME : problems/40-tsp/instance-21.tsp
COMMENT : No Comment
TYPE : TSP
DIMENSION: 40
EDGE_WEIGHT_TYPE : EUC_2D
NODE_COORD_SECTION
1 4120 2345 
2 4217 1899 
3 3526 8810 
4 6044 2202 
5 9937 9265 
6 8238 5821 
7 9380 8928 
8 5786 4623 
9 1209 4796 
10 3144 6104 
11 1868 4910 
12 8934 8262 
13 1708 4525 
14 794 2077 
15 1141 6845 
16 1876 4477 
17 3913 2123 
18 4304 473 
19 119 5094 
20 6404 1025 
21 7930 2521 
22 2593 7628 
23 164 5349 
24 2191 5204 
25 9656 7354 
26 1294 7814 
27 3000 3117 
28 2262 2027 
29 1377 1301 
30 504 8509 
31 7425 7769 
32 1564 3178 
33 7141 3544 
34 4197 4345 
35 4863 2061 
36 380 513 
37 6680 8621 
38 6478 2958 
39 3531 5560 
40 2807 1389 
EOF
